NAME : X-n1561-k75
COMMENT : "Official XL instance released for the CVRPLib Best Known Solution Challenge"
TYPE : CVRP
DIMENSION : 1561
EDGE_WEIGHT_TYPE : EUC_2D
CAPACITY : 21
NODE_COORD_SECTION
1    667  142 
2    76   378 
3    276  788 
4    558  647 
5    601  557 
6    249  896 
7    710  728 
8    713  671 
9    660  559 
10   807  648 
11   776  633 
12   49   998 
13   638  501 
14   31   292 
15   202  850 
16   422  611 
17   463  680 
18   45   392 
19   748  618 
20   505  584 
21   864  385 
22   673  784 
23   714  569 
24   291  712 
25   454  884 
26   312  813 
27   792  631 
28   725  620 
29   279  749 
30   836  570 
31   663  587 
32   410  671 
33   505  795 
34   328  828 
35   460  643 
36   674  620 
37   525  492 
38   726  674 
39   674  924 
40   16   383 
41   456  630 
42   666  796 
43   612  699 
44   206  684 
45   673  809 
46   123  389 
47   745  705 
48   618  630 
49   712  613 
50   8    377 
51   211  260 
52   413  523 
53   582  675 
54   312  844 
55   48   236 
56   481  695 
57   770  818 
58   461  581 
59   544  561 
60   541  641 
61   680  742 
62   438  746 
63   32   372 
64   692  642 
65   70   362 
66   717  646 
67   367  582 
68   615  639 
69   517  617 
70   218  389 
71   339  747 
72   731  577 
73   608  725 
74   241  615 
75   260  817 
76   652  627 
77   280  808 
78   677  629 
79   658  617 
80   54   870 
81   751  836 
82   729  680 
83   353  831 
84   172  866 
85   496  668 
86   330  834 
87   670  596 
88   87   375 
89   254  843 
90   405  843 
91   36   291 
92   239  873 
93   793  565 
94   6    464 
95   35   342 
96   302  826 
97   852  652 
98   120  370 
99   695  738 
100  319  734 
101  621  639 
102  729  662 
103  463  515 
104  620  536 
105  232  783 
106  285  764 
107  289  771 
108  480  614 
109  384  622 
110  632  602 
111  403  990 
112  448  634 
113  52   405 
114  215  534 
115  517  589 
116  494  603 
117  367  715 
118  498  550 
119  728  439 
120  269  778 
121  646  681 
122  496  528 
123  177  769 
124  368  827 
125  669  623 
126  534  653 
127  615  664 
128  397  871 
129  43   646 
130  635  573 
131  362  810 
132  112  829 
133  702  497 
134  756  555 
135  5    243 
136  583  586 
137  517  669 
138  354  893 
139  459  713 
140  136  205 
141  784  670 
142  358  641 
143  587  668 
144  608  283 
145  312  893 
146  59   507 
147  756  643 
148  811  600 
149  216  397 
150  25   296 
151  641  630 
152  691  610 
153  342  651 
154  762  507 
155  242  615 
156  589  697 
157  250  838 
158  715  717 
159  410  694 
160  591  624 
161  711  519 
162  806  852 
163  535  736 
164  577  669 
165  182  727 
166  320  818 
167  357  814 
168  215  911 
169  73   383 
170  629  487 
171  287  836 
172  20   382 
173  348  698 
174  524  622 
175  447  580 
176  696  613 
177  622  589 
178  556  638 
179  26   330 
180  311  688 
181  783  669 
182  678  631 
183  383  916 
184  770  562 
185  366  825 
186  331  835 
187  615  548 
188  748  638 
189  142  899 
190  107  879 
191  99   482 
192  449  684 
193  340  610 
194  681  618 
195  611  850 
196  743  650 
197  466  661 
198  693  519 
199  674  603 
200  544  654 
201  104  704 
202  11   378 
203  611  560 
204  560  526 
205  33   309 
206  217  971 
207  71   303 
208  199  762 
209  275  799 
210  545  712 
211  303  808 
212  568  663 
213  652  706 
214  545  697 
215  585  678 
216  645  654 
217  318  835 
218  614  505 
219  302  885 
220  127  387 
221  23   464 
222  482  767 
223  258  889 
224  542  516 
225  758  602 
226  715  821 
227  293  758 
228  782  394 
229  620  750 
230  697  549 
231  293  780 
232  95   282 
233  72   721 
234  697  483 
235  737  705 
236  393  564 
237  109  357 
238  823  553 
239  131  274 
240  276  796 
241  25   366 
242  711  584 
243  638  760 
244  197  931 
245  628  652 
246  42   433 
247  709  626 
248  582  542 
249  692  701 
250  521  530 
251  636  549 
252  655  635 
253  360  931 
254  272  804 
255  192  748 
256  639  664 
257  626  840 
258  25   375 
259  83   425 
260  301  877 
261  678  650 
262  236  761 
263  257  772 
264  644  656 
265  282  772 
266  609  661 
267  554  677 
268  867  694 
269  691  602 
270  159  625 
271  280  833 
272  707  570 
273  344  787 
274  132  289 
275  44   451 
276  32   373 
277  759  618 
278  271  803 
279  715  610 
280  353  805 
281  686  538 
282  656  537 
283  713  600 
284  623  815 
285  613  650 
286  689  585 
287  112  795 
288  205  999 
289  792  589 
290  723  739 
291  825  661 
292  603  828 
293  659  693 
294  163  770 
295  257  790 
296  347  859 
297  445  831 
298  654  603 
299  115  426 
300  191  811 
301  589  675 
302  663  648 
303  605  867 
304  74   800 
305  738  570 
306  551  632 
307  7    319 
308  51   481 
309  14   328 
310  455  718 
311  207  738 
312  744  576 
313  270  902 
314  518  625 
315  241  822 
316  337  814 
317  286  731 
318  345  880 
319  119  233 
320  458  605 
321  791  824 
322  442  557 
323  31   265 
324  271  830 
325  453  679 
326  534  805 
327  683  608 
328  602  592 
329  489  723 
330  237  885 
331  805  616 
332  707  534 
333  47   382 
334  819  465 
335  674  555 
336  705  604 
337  610  723 
338  37   389 
339  816  456 
340  64   365 
341  121  364 
342  821  586 
343  73   516 
344  675  601 
345  787  583 
346  331  780 
347  278  755 
348  283  811 
349  674  546 
350  471  888 
351  168  594 
352  838  732 
353  548  785 
354  814  753 
355  387  723 
356  617  498 
357  502  796 
358  37   196 
359  537  771 
360  280  828 
361  520  684 
362  103  274 
363  741  749 
364  543  630 
365  287  761 
366  588  349 
367  274  811 
368  822  684 
369  424  344 
370  632  839 
371  249  531 
372  303  767 
373  768  647 
374  473  736 
375  439  923 
376  515  684 
377  428  760 
378  508  722 
379  185  287 
380  616  490 
381  65   356 
382  786  678 
383  272  724 
384  310  828 
385  593  379 
386  392  836 
387  151  788 
388  797  620 
389  599  410 
390  697  662 
391  735  641 
392  518  612 
393  483  910 
394  577  668 
395  597  491 
396  696  607 
397  325  803 
398  135  308 
399  661  602 
400  192  691 
401  758  496 
402  733  589 
403  667  572 
404  679  475 
405  585  670 
406  646  366 
407  99   367 
408  340  757 
409  248  802 
410  671  633 
411  709  694 
412  306  532 
413  4    390 
414  297  879 
415  562  591 
416  616  758 
417  525  687 
418  488  810 
419  572  654 
420  775  502 
421  299  908 
422  178  650 
423  288  800 
424  158  753 
425  505  699 
426  324  768 
427  168  421 
428  291  874 
429  281  686 
430  654  820 
431  616  780 
432  750  568 
433  357  952 
434  814  553 
435  691  577 
436  654  541 
437  462  528 
438  252  786 
439  53   372 
440  272  816 
441  612  648 
442  759  555 
443  637  640 
444  289  744 
445  518  689 
446  705  619 
447  6    400 
448  356  618 
449  235  875 
450  311  566 
451  595  664 
452  360  807 
453  569  642 
454  234  768 
455  368  845 
456  557  684 
457  485  657 
458  21   356 
459  428  538 
460  484  607 
461  215  359 
462  56   724 
463  478  462 
464  478  771 
465  693  520 
466  710  734 
467  626  541 
468  699  606 
469  495  905 
470  642  823 
471  18   332 
472  688  604 
473  743  524 
474  180  806 
475  614  654 
476  299  714 
477  309  828 
478  308  865 
479  503  774 
480  740  742 
481  733  470 
482  20   393 
483  581  733 
484  456  632 
485  823  688 
486  10   428 
487  305  853 
488  53   496 
489  301  876 
490  583  629 
491  711  576 
492  257  795 
493  189  779 
494  468  627 
495  602  775 
496  74   419 
497  148  475 
498  762  603 
499  422  738 
500  83   909 
501  601  661 
502  730  617 
503  674  631 
504  878  655 
505  131  871 
506  123  183 
507  641  694 
508  293  806 
509  300  229 
510  687  395 
511  249  763 
512  739  711 
513  36   319 
514  235  780 
515  373  805 
516  675  666 
517  166  554 
518  544  697 
519  781  644 
520  96   479 
521  83   353 
522  579  676 
523  322  647 
524  696  542 
525  507  641 
526  29   449 
527  724  674 
528  705  577 
529  523  743 
530  102  361 
531  490  522 
532  295  754 
533  900  528 
534  285  814 
535  641  640 
536  629  564 
537  813  567 
538  616  535 
539  585  552 
540  415  784 
541  387  454 
542  657  484 
543  15   428 
544  56   360 
545  123  839 
546  472  931 
547  803  553 
548  200  626 
549  318  856 
550  597  691 
551  646  573 
552  513  716 
553  717  687 
554  719  703 
555  465  834 
556  299  858 
557  591  625 
558  741  617 
559  639  676 
560  51   384 
561  359  765 
562  664  702 
563  149  826 
564  707  736 
565  697  603 
566  592  399 
567  522  797 
568  248  768 
569  687  431 
570  691  702 
571  485  681 
572  640  821 
573  738  597 
574  723  737 
575  15   175 
576  635  721 
577  263  721 
578  397  735 
579  643  667 
580  807  547 
581  313  875 
582  530  686 
583  33   398 
584  792  514 
585  439  762 
586  207  617 
587  49   270 
588  638  678 
589  705  557 
590  598  654 
591  529  728 
592  687  602 
593  172  168 
594  299  816 
595  426  722 
596  260  941 
597  264  734 
598  688  539 
599  245  799 
600  509  666 
601  425  586 
602  244  823 
603  689  614 
604  210  204 
605  606  566 
606  510  735 
607  359  861 
608  323  900 
609  547  635 
610  542  660 
611  65   816 
612  696  601 
613  717  509 
614  495  649 
615  952  540 
616  702  482 
617  673  677 
618  453  609 
619  843  402 
620  720  632 
621  485  636 
622  72   282 
623  658  711 
624  148  265 
625  725  588 
626  672  674 
627  34   368 
628  346  398 
629  243  932 
630  405  888 
631  635  765 
632  872  729 
633  579  751 
634  339  786 
635  602  660 
636  716  602 
637  654  643 
638  749  692 
639  328  400 
640  564  469 
641  711  614 
642  255  826 
643  42   350 
644  412  787 
645  689  672 
646  801  562 
647  553  638 
648  637  646 
649  531  668 
650  591  544 
651  541  673 
652  726  615 
653  271  595 
654  625  624 
655  491  665 
656  182  783 
657  476  488 
658  735  524 
659  633  667 
660  561  695 
661  238  817 
662  673  720 
663  624  596 
664  33   420 
665  549  755 
666  897  549 
667  522  608 
668  778  502 
669  523  716 
670  142  881 
671  640  544 
672  608  565 
673  1    409 
674  660  547 
675  790  598 
676  21   385 
677  577  817 
678  253  845 
679  767  610 
680  220  743 
681  27   416 
682  582  701 
683  53   380 
684  495  682 
685  35   433 
686  793  531 
687  477  689 
688  481  694 
689  138  784 
690  477  802 
691  875  557 
692  15   341 
693  673  668 
694  277  763 
695  726  686 
696  927  428 
697  548  690 
698  719  581 
699  546  592 
700  33   438 
701  41   406 
702  279  291 
703  254  743 
704  256  823 
705  22   990 
706  577  771 
707  552  607 
708  624  594 
709  821  659 
710  612  678 
711  41   415 
712  668  615 
713  698  594 
714  551  651 
715  197  938 
716  418  668 
717  517  774 
718  88   386 
719  211  444 
720  272  797 
721  225  787 
722  237  800 
723  276  812 
724  316  798 
725  566  695 
726  106  460 
727  142  845 
728  723  589 
729  249  777 
730  309  559 
731  537  785 
732  249  762 
733  562  869 
734  101  286 
735  551  748 
736  715  834 
737  23   297 
738  595  719 
739  210  829 
740  262  770 
741  604  903 
742  669  648 
743  316  815 
744  455  723 
745  574  644 
746  18   243 
747  418  880 
748  695  448 
749  510  798 
750  386  687 
751  10   297 
752  53   305 
753  554  668 
754  701  731 
755  297  653 
756  634  686 
757  583  641 
758  607  657 
759  575  493 
760  600  609 
761  345  830 
762  287  895 
763  827  410 
764  499  646 
765  579  631 
766  361  854 
767  659  709 
768  37   410 
769  258  473 
770  42   410 
771  171  920 
772  689  656 
773  707  517 
774  196  928 
775  712  640 
776  677  416 
777  615  615 
778  335  842 
779  710  770 
780  311  859 
781  24   309 
782  225  831 
783  468  886 
784  223  768 
785  736  563 
786  718  630 
787  684  578 
788  632  605 
789  185  422 
790  750  760 
791  608  574 
792  316  648 
793  679  751 
794  683  495 
795  4    255 
796  724  528 
797  598  628 
798  604  619 
799  684  569 
800  687  604 
801  549  603 
802  860  652 
803  94   440 
804  220  787 
805  542  570 
806  63   359 
807  637  744 
808  785  587 
809  256  721 
810  538  456 
811  593  664 
812  59   593 
813  776  477 
814  262  854 
815  726  577 
816  678  590 
817  337  672 
818  178  817 
819  577  640 
820  248  928 
821  579  763 
822  67   389 
823  750  650 
824  70   327 
825  241  839 
826  601  781 
827  104  339 
828  681  627 
829  250  826 
830  269  825 
831  327  806 
832  642  683 
833  8    339 
834  178  671 
835  822  677 
836  182  260 
837  564  593 
838  469  633 
839  53   399 
840  379  583 
841  363  769 
842  679  502 
843  507  597 
844  0    441 
845  755  602 
846  82   285 
847  703  618 
848  605  633 
849  234  957 
850  592  722 
851  754  577 
852  888  488 
853  197  818 
854  555  672 
855  24   205 
856  853  605 
857  174  424 
858  303  950 
859  107  875 
860  594  814 
861  248  804 
862  447  795 
863  610  567 
864  677  674 
865  301  728 
866  751  501 
867  382  328 
868  222  395 
869  582  587 
870  318  351 
871  640  413 
872  181  819 
873  275  840 
874  220  863 
875  561  701 
876  663  539 
877  362  296 
878  718  645 
879  523  726 
880  85   510 
881  233  683 
882  203  847 
883  501  837 
884  671  646 
885  131  399 
886  331  893 
887  670  499 
888  246  873 
889  797  663 
890  513  523 
891  419  168 
892  611  642 
893  518  694 
894  708  690 
895  399  938 
896  492  632 
897  334  800 
898  192  777 
899  279  731 
900  714  788 
901  718  575 
902  4    200 
903  685  612 
904  770  515 
905  539  671 
906  759  504 
907  464  662 
908  7    372 
909  229  747 
910  515  692 
911  586  663 
912  186  517 
913  635  862 
914  802  741 
915  765  794 
916  368  838 
917  97   441 
918  597  636 
919  732  680 
920  92   319 
921  291  906 
922  365  654 
923  766  446 
924  322  835 
925  510  441 
926  847  624 
927  334  861 
928  260  832 
929  177  770 
930  196  838 
931  39   345 
932  616  573 
933  93   379 
934  574  620 
935  22   354 
936  647  480 
937  449  653 
938  323  801 
939  558  661 
940  320  670 
941  860  548 
942  570  699 
943  519  545 
944  581  819 
945  750  730 
946  215  415 
947  426  658 
948  45   188 
949  892  844 
950  657  746 
951  711  571 
952  234  723 
953  271  703 
954  260  822 
955  301  889 
956  612  710 
957  637  714 
958  384  895 
959  315  937 
960  601  668 
961  431  539 
962  710  681 
963  759  695 
964  715  655 
965  663  594 
966  105  244 
967  360  780 
968  677  625 
969  440  648 
970  636  589 
971  381  891 
972  537  509 
973  721  616 
974  463  569 
975  583  792 
976  228  837 
977  549  664 
978  717  594 
979  97   252 
980  309  911 
981  23   406 
982  140  927 
983  641  646 
984  738  795 
985  226  836 
986  688  561 
987  327  763 
988  593  692 
989  525  669 
990  286  734 
991  638  691 
992  180  495 
993  236  790 
994  699  650 
995  354  876 
996  745  562 
997  31   266 
998  622  683 
999  368  912 
1000 701  723 
1001 578  575 
1002 8    406 
1003 522  739 
1004 707  539 
1005 291  813 
1006 515  647 
1007 1    448 
1008 274  820 
1009 241  852 
1010 556  671 
1011 344  842 
1012 72   335 
1013 310  985 
1014 518  743 
1015 316  843 
1016 544  676 
1017 269  774 
1018 256  842 
1019 561  526 
1020 752  715 
1021 695  607 
1022 725  648 
1023 32   427 
1024 227  791 
1025 41   307 
1026 462  668 
1027 528  656 
1028 326  618 
1029 76   294 
1030 276  864 
1031 773  622 
1032 27   273 
1033 566  716 
1034 631  607 
1035 661  484 
1036 554  750 
1037 558  565 
1038 667  773 
1039 580  610 
1040 486  752 
1041 801  532 
1042 325  830 
1043 114  153 
1044 294  747 
1045 354  744 
1046 687  725 
1047 83   260 
1048 227  875 
1049 123  464 
1050 33   389 
1051 270  726 
1052 516  693 
1053 728  563 
1054 103  405 
1055 204  902 
1056 813  315 
1057 356  779 
1058 669  637 
1059 302  709 
1060 525  611 
1061 383  652 
1062 564  594 
1063 581  668 
1064 485  706 
1065 52   366 
1066 459  574 
1067 580  690 
1068 247  840 
1069 748  504 
1070 327  798 
1071 400  629 
1072 228  790 
1073 530  576 
1074 720  521 
1075 520  576 
1076 940  697 
1077 505  686 
1078 294  931 
1079 541  685 
1080 49   311 
1081 152  690 
1082 450  532 
1083 842  350 
1084 552  525 
1085 505  544 
1086 224  904 
1087 121  624 
1088 545  675 
1089 433  518 
1090 845  410 
1091 504  621 
1092 710  493 
1093 22   468 
1094 687  632 
1095 50   408 
1096 642  618 
1097 556  512 
1098 302  775 
1099 229  813 
1100 920  790 
1101 8    368 
1102 595  660 
1103 102  302 
1104 268  770 
1105 267  721 
1106 288  826 
1107 589  323 
1108 590  627 
1109 220  855 
1110 23   471 
1111 140  273 
1112 70   525 
1113 681  710 
1114 556  616 
1115 778  702 
1116 273  958 
1117 521  477 
1118 634  593 
1119 376  758 
1120 572  671 
1121 192  953 
1122 234  783 
1123 182  329 
1124 239  989 
1125 534  711 
1126 409  598 
1127 214  862 
1128 604  708 
1129 553  622 
1130 299  726 
1131 764  680 
1132 55   411 
1133 646  730 
1134 690  662 
1135 802  489 
1136 287  804 
1137 20   286 
1138 685  604 
1139 688  789 
1140 468  616 
1141 233  978 
1142 164  865 
1143 666  600 
1144 768  557 
1145 733  566 
1146 539  516 
1147 120  705 
1148 567  537 
1149 914  493 
1150 165  234 
1151 312  818 
1152 259  918 
1153 499  679 
1154 727  386 
1155 739  751 
1156 48   465 
1157 621  780 
1158 398  979 
1159 206  774 
1160 34   450 
1161 613  644 
1162 279  624 
1163 35   417 
1164 388  825 
1165 347  804 
1166 565  556 
1167 32   200 
1168 583  703 
1169 493  663 
1170 621  720 
1171 82   158 
1172 652  457 
1173 100  411 
1174 67   840 
1175 197  768 
1176 477  666 
1177 102  370 
1178 31   393 
1179 540  674 
1180 245  901 
1181 528  559 
1182 106  349 
1183 774  617 
1184 563  666 
1185 472  698 
1186 41   382 
1187 738  588 
1188 461  819 
1189 564  529 
1190 728  586 
1191 548  618 
1192 309  788 
1193 113  348 
1194 721  647 
1195 388  815 
1196 727  425 
1197 461  714 
1198 209  850 
1199 821  635 
1200 662  561 
1201 455  717 
1202 280  804 
1203 650  495 
1204 561  707 
1205 565  720 
1206 86   166 
1207 524  641 
1208 484  613 
1209 306  731 
1210 720  673 
1211 46   873 
1212 17   399 
1213 37   415 
1214 862  911 
1215 21   389 
1216 477  378 
1217 589  711 
1218 612  757 
1219 441  725 
1220 553  882 
1221 491  722 
1222 384  620 
1223 207  838 
1224 687  584 
1225 562  668 
1226 282  800 
1227 552  548 
1228 96   480 
1229 114  963 
1230 174  921 
1231 631  731 
1232 379  701 
1233 19   358 
1234 334  793 
1235 388  772 
1236 323  914 
1237 658  572 
1238 542  678 
1239 767  548 
1240 603  581 
1241 688  608 
1242 389  730 
1243 601  500 
1244 658  789 
1245 50   506 
1246 783  703 
1247 592  790 
1248 24   429 
1249 434  727 
1250 643  450 
1251 748  536 
1252 325  820 
1253 716  561 
1254 350  755 
1255 406  415 
1256 322  742 
1257 567  720 
1258 534  625 
1259 594  654 
1260 9    362 
1261 746  597 
1262 897  637 
1263 554  604 
1264 619  555 
1265 583  577 
1266 786  430 
1267 625  545 
1268 260  793 
1269 139  367 
1270 286  793 
1271 752  594 
1272 534  665 
1273 278  790 
1274 624  668 
1275 522  669 
1276 102  432 
1277 690  705 
1278 710  644 
1279 3    65  
1280 454  743 
1281 574  692 
1282 346  871 
1283 260  768 
1284 616  494 
1285 73   488 
1286 44   287 
1287 356  824 
1288 656  622 
1289 696  715 
1290 718  694 
1291 167  547 
1292 483  655 
1293 793  654 
1294 812  752 
1295 616  326 
1296 621  640 
1297 18   365 
1298 435  681 
1299 686  920 
1300 72   285 
1301 559  657 
1302 305  819 
1303 538  585 
1304 353  722 
1305 301  786 
1306 254  818 
1307 304  778 
1308 60   357 
1309 479  381 
1310 60   212 
1311 282  842 
1312 455  661 
1313 97   857 
1314 225  762 
1315 28   489 
1316 94   293 
1317 496  878 
1318 659  649 
1319 625  636 
1320 663  573 
1321 336  797 
1322 504  622 
1323 234  794 
1324 551  572 
1325 700  775 
1326 562  685 
1327 273  940 
1328 380  573 
1329 610  628 
1330 483  828 
1331 12   362 
1332 303  814 
1333 53   408 
1334 646  745 
1335 186  827 
1336 522  689 
1337 73   303 
1338 790  594 
1339 627  940 
1340 630  680 
1341 595  864 
1342 572  624 
1343 612  549 
1344 189  852 
1345 577  635 
1346 641  710 
1347 474  561 
1348 686  619 
1349 345  772 
1350 731  757 
1351 603  645 
1352 79   440 
1353 599  689 
1354 635  383 
1355 709  540 
1356 849  604 
1357 444  572 
1358 588  542 
1359 649  614 
1360 30   257 
1361 550  678 
1362 241  637 
1363 64   305 
1364 279  835 
1365 339  834 
1366 698  560 
1367 185  739 
1368 271  832 
1369 83   310 
1370 671  601 
1371 727  556 
1372 643  613 
1373 733  678 
1374 633  593 
1375 262  796 
1376 102  321 
1377 269  838 
1378 679  496 
1379 807  703 
1380 602  719 
1381 552  578 
1382 73   563 
1383 16   373 
1384 218  839 
1385 536  502 
1386 98   401 
1387 375  734 
1388 267  542 
1389 141  163 
1390 435  506 
1391 36   388 
1392 243  994 
1393 247  826 
1394 30   371 
1395 386  880 
1396 496  587 
1397 951  553 
1398 292  716 
1399 577  583 
1400 635  680 
1401 616  697 
1402 721  636 
1403 691  795 
1404 708  656 
1405 475  680 
1406 633  611 
1407 684  601 
1408 557  635 
1409 333  806 
1410 583  767 
1411 307  768 
1412 38   325 
1413 539  637 
1414 794  533 
1415 729  645 
1416 604  681 
1417 272  791 
1418 383  588 
1419 350  700 
1420 369  739 
1421 585  454 
1422 259  908 
1423 555  635 
1424 384  671 
1425 645  726 
1426 635  678 
1427 44   213 
1428 674  530 
1429 509  618 
1430 703  571 
1431 334  705 
1432 66   409 
1433 289  779 
1434 703  648 
1435 635  718 
1436 724  629 
1437 637  617 
1438 286  802 
1439 654  551 
1440 271  828 
1441 404  870 
1442 313  852 
1443 744  592 
1444 511  679 
1445 106  405 
1446 436  915 
1447 56   364 
1448 321  341 
1449 569  580 
1450 566  662 
1451 796  596 
1452 379  862 
1453 634  692 
1454 251  847 
1455 183  724 
1456 10   375 
1457 673  669 
1458 549  648 
1459 103  900 
1460 199  912 
1461 692  506 
1462 340  727 
1463 896  597 
1464 310  812 
1465 581  719 
1466 542  763 
1467 640  708 
1468 510  679 
1469 696  678 
1470 548  655 
1471 704  548 
1472 510  822 
1473 464  410 
1474 671  697 
1475 641  638 
1476 533  568 
1477 535  723 
1478 408  786 
1479 561  669 
1480 469  830 
1481 500  593 
1482 266  393 
1483 642  574 
1484 255  712 
1485 35   371 
1486 588  605 
1487 9    408 
1488 264  825 
1489 612  539 
1490 216  844 
1491 325  828 
1492 251  850 
1493 622  682 
1494 210  895 
1495 363  781 
1496 113  361 
1497 336  809 
1498 26   416 
1499 315  818 
1500 356  731 
1501 707  731 
1502 562  641 
1503 28   357 
1504 129  397 
1505 650  633 
1506 714  538 
1507 660  676 
1508 613  549 
1509 613  708 
1510 380  759 
1511 111  316 
1512 739  639 
1513 836  597 
1514 527  415 
1515 62   242 
1516 197  831 
1517 295  859 
1518 287  834 
1519 550  699 
1520 473  757 
1521 647  681 
1522 599  677 
1523 340  824 
1524 577  647 
1525 368  738 
1526 95   474 
1527 29   355 
1528 358  684 
1529 607  604 
1530 773  575 
1531 177  638 
1532 679  645 
1533 645  558 
1534 237  772 
1535 693  568 
1536 876  501 
1537 329  928 
1538 560  702 
1539 647  678 
1540 116  756 
1541 712  585 
1542 358  793 
1543 704  721 
1544 212  796 
1545 415  980 
1546 322  885 
1547 54   398 
1548 171  852 
1549 33   350 
1550 432  658 
1551 306  874 
1552 382  635 
1553 536  669 
1554 520  631 
1555 27   601 
1556 564  641 
1557 378  770 
1558 609  764 
1559 594  722 
1560 39   316 
1561 81   443 
DEMAND_SECTION
1    0   
2    1   
3    1   
4    1   
5    1   
6    1   
7    1   
8    1   
9    1   
10   1   
11   1   
12   1   
13   1   
14   1   
15   1   
16   1   
17   1   
18   1   
19   1   
20   1   
21   1   
22   1   
23   1   
24   1   
25   1   
26   1   
27   1   
28   1   
29   1   
30   1   
31   1   
32   1   
33   1   
34   1   
35   1   
36   1   
37   1   
38   1   
39   1   
40   1   
41   1   
42   1   
43   1   
44   1   
45   1   
46   1   
47   1   
48   1   
49   1   
50   1   
51   1   
52   1   
53   1   
54   1   
55   1   
56   1   
57   1   
58   1   
59   1   
60   1   
61   1   
62   1   
63   1   
64   1   
65   1   
66   1   
67   1   
68   1   
69   1   
70   1   
71   1   
72   1   
73   1   
74   1   
75   1   
76   1   
77   1   
78   1   
79   1   
80   1   
81   1   
82   1   
83   1   
84   1   
85   1   
86   1   
87   1   
88   1   
89   1   
90   1   
91   1   
92   1   
93   1   
94   1   
95   1   
96   1   
97   1   
98   1   
99   1   
100  1   
101  1   
102  1   
103  1   
104  1   
105  1   
106  1   
107  1   
108  1   
109  1   
110  1   
111  1   
112  1   
113  1   
114  1   
115  1   
116  1   
117  1   
118  1   
119  1   
120  1   
121  1   
122  1   
123  1   
124  1   
125  1   
126  1   
127  1   
128  1   
129  1   
130  1   
131  1   
132  1   
133  1   
134  1   
135  1   
136  1   
137  1   
138  1   
139  1   
140  1   
141  1   
142  1   
143  1   
144  1   
145  1   
146  1   
147  1   
148  1   
149  1   
150  1   
151  1   
152  1   
153  1   
154  1   
155  1   
156  1   
157  1   
158  1   
159  1   
160  1   
161  1   
162  1   
163  1   
164  1   
165  1   
166  1   
167  1   
168  1   
169  1   
170  1   
171  1   
172  1   
173  1   
174  1   
175  1   
176  1   
177  1   
178  1   
179  1   
180  1   
181  1   
182  1   
183  1   
184  1   
185  1   
186  1   
187  1   
188  1   
189  1   
190  1   
191  1   
192  1   
193  1   
194  1   
195  1   
196  1   
197  1   
198  1   
199  1   
200  1   
201  1   
202  1   
203  1   
204  1   
205  1   
206  1   
207  1   
208  1   
209  1   
210  1   
211  1   
212  1   
213  1   
214  1   
215  1   
216  1   
217  1   
218  1   
219  1   
220  1   
221  1   
222  1   
223  1   
224  1   
225  1   
226  1   
227  1   
228  1   
229  1   
230  1   
231  1   
232  1   
233  1   
234  1   
235  1   
236  1   
237  1   
238  1   
239  1   
240  1   
241  1   
242  1   
243  1   
244  1   
245  1   
246  1   
247  1   
248  1   
249  1   
250  1   
251  1   
252  1   
253  1   
254  1   
255  1   
256  1   
257  1   
258  1   
259  1   
260  1   
261  1   
262  1   
263  1   
264  1   
265  1   
266  1   
267  1   
268  1   
269  1   
270  1   
271  1   
272  1   
273  1   
274  1   
275  1   
276  1   
277  1   
278  1   
279  1   
280  1   
281  1   
282  1   
283  1   
284  1   
285  1   
286  1   
287  1   
288  1   
289  1   
290  1   
291  1   
292  1   
293  1   
294  1   
295  1   
296  1   
297  1   
298  1   
299  1   
300  1   
301  1   
302  1   
303  1   
304  1   
305  1   
306  1   
307  1   
308  1   
309  1   
310  1   
311  1   
312  1   
313  1   
314  1   
315  1   
316  1   
317  1   
318  1   
319  1   
320  1   
321  1   
322  1   
323  1   
324  1   
325  1   
326  1   
327  1   
328  1   
329  1   
330  1   
331  1   
332  1   
333  1   
334  1   
335  1   
336  1   
337  1   
338  1   
339  1   
340  1   
341  1   
342  1   
343  1   
344  1   
345  1   
346  1   
347  1   
348  1   
349  1   
350  1   
351  1   
352  1   
353  1   
354  1   
355  1   
356  1   
357  1   
358  1   
359  1   
360  1   
361  1   
362  1   
363  1   
364  1   
365  1   
366  1   
367  1   
368  1   
369  1   
370  1   
371  1   
372  1   
373  1   
374  1   
375  1   
376  1   
377  1   
378  1   
379  1   
380  1   
381  1   
382  1   
383  1   
384  1   
385  1   
386  1   
387  1   
388  1   
389  1   
390  1   
391  1   
392  1   
393  1   
394  1   
395  1   
396  1   
397  1   
398  1   
399  1   
400  1   
401  1   
402  1   
403  1   
404  1   
405  1   
406  1   
407  1   
408  1   
409  1   
410  1   
411  1   
412  1   
413  1   
414  1   
415  1   
416  1   
417  1   
418  1   
419  1   
420  1   
421  1   
422  1   
423  1   
424  1   
425  1   
426  1   
427  1   
428  1   
429  1   
430  1   
431  1   
432  1   
433  1   
434  1   
435  1   
436  1   
437  1   
438  1   
439  1   
440  1   
441  1   
442  1   
443  1   
444  1   
445  1   
446  1   
447  1   
448  1   
449  1   
450  1   
451  1   
452  1   
453  1   
454  1   
455  1   
456  1   
457  1   
458  1   
459  1   
460  1   
461  1   
462  1   
463  1   
464  1   
465  1   
466  1   
467  1   
468  1   
469  1   
470  1   
471  1   
472  1   
473  1   
474  1   
475  1   
476  1   
477  1   
478  1   
479  1   
480  1   
481  1   
482  1   
483  1   
484  1   
485  1   
486  1   
487  1   
488  1   
489  1   
490  1   
491  1   
492  1   
493  1   
494  1   
495  1   
496  1   
497  1   
498  1   
499  1   
500  1   
501  1   
502  1   
503  1   
504  1   
505  1   
506  1   
507  1   
508  1   
509  1   
510  1   
511  1   
512  1   
513  1   
514  1   
515  1   
516  1   
517  1   
518  1   
519  1   
520  1   
521  1   
522  1   
523  1   
524  1   
525  1   
526  1   
527  1   
528  1   
529  1   
530  1   
531  1   
532  1   
533  1   
534  1   
535  1   
536  1   
537  1   
538  1   
539  1   
540  1   
541  1   
542  1   
543  1   
544  1   
545  1   
546  1   
547  1   
548  1   
549  1   
550  1   
551  1   
552  1   
553  1   
554  1   
555  1   
556  1   
557  1   
558  1   
559  1   
560  1   
561  1   
562  1   
563  1   
564  1   
565  1   
566  1   
567  1   
568  1   
569  1   
570  1   
571  1   
572  1   
573  1   
574  1   
575  1   
576  1   
577  1   
578  1   
579  1   
580  1   
581  1   
582  1   
583  1   
584  1   
585  1   
586  1   
587  1   
588  1   
589  1   
590  1   
591  1   
592  1   
593  1   
594  1   
595  1   
596  1   
597  1   
598  1   
599  1   
600  1   
601  1   
602  1   
603  1   
604  1   
605  1   
606  1   
607  1   
608  1   
609  1   
610  1   
611  1   
612  1   
613  1   
614  1   
615  1   
616  1   
617  1   
618  1   
619  1   
620  1   
621  1   
622  1   
623  1   
624  1   
625  1   
626  1   
627  1   
628  1   
629  1   
630  1   
631  1   
632  1   
633  1   
634  1   
635  1   
636  1   
637  1   
638  1   
639  1   
640  1   
641  1   
642  1   
643  1   
644  1   
645  1   
646  1   
647  1   
648  1   
649  1   
650  1   
651  1   
652  1   
653  1   
654  1   
655  1   
656  1   
657  1   
658  1   
659  1   
660  1   
661  1   
662  1   
663  1   
664  1   
665  1   
666  1   
667  1   
668  1   
669  1   
670  1   
671  1   
672  1   
673  1   
674  1   
675  1   
676  1   
677  1   
678  1   
679  1   
680  1   
681  1   
682  1   
683  1   
684  1   
685  1   
686  1   
687  1   
688  1   
689  1   
690  1   
691  1   
692  1   
693  1   
694  1   
695  1   
696  1   
697  1   
698  1   
699  1   
700  1   
701  1   
702  1   
703  1   
704  1   
705  1   
706  1   
707  1   
708  1   
709  1   
710  1   
711  1   
712  1   
713  1   
714  1   
715  1   
716  1   
717  1   
718  1   
719  1   
720  1   
721  1   
722  1   
723  1   
724  1   
725  1   
726  1   
727  1   
728  1   
729  1   
730  1   
731  1   
732  1   
733  1   
734  1   
735  1   
736  1   
737  1   
738  1   
739  1   
740  1   
741  1   
742  1   
743  1   
744  1   
745  1   
746  1   
747  1   
748  1   
749  1   
750  1   
751  1   
752  1   
753  1   
754  1   
755  1   
756  1   
757  1   
758  1   
759  1   
760  1   
761  1   
762  1   
763  1   
764  1   
765  1   
766  1   
767  1   
768  1   
769  1   
770  1   
771  1   
772  1   
773  1   
774  1   
775  1   
776  1   
777  1   
778  1   
779  1   
780  1   
781  1   
782  1   
783  1   
784  1   
785  1   
786  1   
787  1   
788  1   
789  1   
790  1   
791  1   
792  1   
793  1   
794  1   
795  1   
796  1   
797  1   
798  1   
799  1   
800  1   
801  1   
802  1   
803  1   
804  1   
805  1   
806  1   
807  1   
808  1   
809  1   
810  1   
811  1   
812  1   
813  1   
814  1   
815  1   
816  1   
817  1   
818  1   
819  1   
820  1   
821  1   
822  1   
823  1   
824  1   
825  1   
826  1   
827  1   
828  1   
829  1   
830  1   
831  1   
832  1   
833  1   
834  1   
835  1   
836  1   
837  1   
838  1   
839  1   
840  1   
841  1   
842  1   
843  1   
844  1   
845  1   
846  1   
847  1   
848  1   
849  1   
850  1   
851  1   
852  1   
853  1   
854  1   
855  1   
856  1   
857  1   
858  1   
859  1   
860  1   
861  1   
862  1   
863  1   
864  1   
865  1   
866  1   
867  1   
868  1   
869  1   
870  1   
871  1   
872  1   
873  1   
874  1   
875  1   
876  1   
877  1   
878  1   
879  1   
880  1   
881  1   
882  1   
883  1   
884  1   
885  1   
886  1   
887  1   
888  1   
889  1   
890  1   
891  1   
892  1   
893  1   
894  1   
895  1   
896  1   
897  1   
898  1   
899  1   
900  1   
901  1   
902  1   
903  1   
904  1   
905  1   
906  1   
907  1   
908  1   
909  1   
910  1   
911  1   
912  1   
913  1   
914  1   
915  1   
916  1   
917  1   
918  1   
919  1   
920  1   
921  1   
922  1   
923  1   
924  1   
925  1   
926  1   
927  1   
928  1   
929  1   
930  1   
931  1   
932  1   
933  1   
934  1   
935  1   
936  1   
937  1   
938  1   
939  1   
940  1   
941  1   
942  1   
943  1   
944  1   
945  1   
946  1   
947  1   
948  1   
949  1   
950  1   
951  1   
952  1   
953  1   
954  1   
955  1   
956  1   
957  1   
958  1   
959  1   
960  1   
961  1   
962  1   
963  1   
964  1   
965  1   
966  1   
967  1   
968  1   
969  1   
970  1   
971  1   
972  1   
973  1   
974  1   
975  1   
976  1   
977  1   
978  1   
979  1   
980  1   
981  1   
982  1   
983  1   
984  1   
985  1   
986  1   
987  1   
988  1   
989  1   
990  1   
991  1   
992  1   
993  1   
994  1   
995  1   
996  1   
997  1   
998  1   
999  1   
1000 1   
1001 1   
1002 1   
1003 1   
1004 1   
1005 1   
1006 1   
1007 1   
1008 1   
1009 1   
1010 1   
1011 1   
1012 1   
1013 1   
1014 1   
1015 1   
1016 1   
1017 1   
1018 1   
1019 1   
1020 1   
1021 1   
1022 1   
1023 1   
1024 1   
1025 1   
1026 1   
1027 1   
1028 1   
1029 1   
1030 1   
1031 1   
1032 1   
1033 1   
1034 1   
1035 1   
1036 1   
1037 1   
1038 1   
1039 1   
1040 1   
1041 1   
1042 1   
1043 1   
1044 1   
1045 1   
1046 1   
1047 1   
1048 1   
1049 1   
1050 1   
1051 1   
1052 1   
1053 1   
1054 1   
1055 1   
1056 1   
1057 1   
1058 1   
1059 1   
1060 1   
1061 1   
1062 1   
1063 1   
1064 1   
1065 1   
1066 1   
1067 1   
1068 1   
1069 1   
1070 1   
1071 1   
1072 1   
1073 1   
1074 1   
1075 1   
1076 1   
1077 1   
1078 1   
1079 1   
1080 1   
1081 1   
1082 1   
1083 1   
1084 1   
1085 1   
1086 1   
1087 1   
1088 1   
1089 1   
1090 1   
1091 1   
1092 1   
1093 1   
1094 1   
1095 1   
1096 1   
1097 1   
1098 1   
1099 1   
1100 1   
1101 1   
1102 1   
1103 1   
1104 1   
1105 1   
1106 1   
1107 1   
1108 1   
1109 1   
1110 1   
1111 1   
1112 1   
1113 1   
1114 1   
1115 1   
1116 1   
1117 1   
1118 1   
1119 1   
1120 1   
1121 1   
1122 1   
1123 1   
1124 1   
1125 1   
1126 1   
1127 1   
1128 1   
1129 1   
1130 1   
1131 1   
1132 1   
1133 1   
1134 1   
1135 1   
1136 1   
1137 1   
1138 1   
1139 1   
1140 1   
1141 1   
1142 1   
1143 1   
1144 1   
1145 1   
1146 1   
1147 1   
1148 1   
1149 1   
1150 1   
1151 1   
1152 1   
1153 1   
1154 1   
1155 1   
1156 1   
1157 1   
1158 1   
1159 1   
1160 1   
1161 1   
1162 1   
1163 1   
1164 1   
1165 1   
1166 1   
1167 1   
1168 1   
1169 1   
1170 1   
1171 1   
1172 1   
1173 1   
1174 1   
1175 1   
1176 1   
1177 1   
1178 1   
1179 1   
1180 1   
1181 1   
1182 1   
1183 1   
1184 1   
1185 1   
1186 1   
1187 1   
1188 1   
1189 1   
1190 1   
1191 1   
1192 1   
1193 1   
1194 1   
1195 1   
1196 1   
1197 1   
1198 1   
1199 1   
1200 1   
1201 1   
1202 1   
1203 1   
1204 1   
1205 1   
1206 1   
1207 1   
1208 1   
1209 1   
1210 1   
1211 1   
1212 1   
1213 1   
1214 1   
1215 1   
1216 1   
1217 1   
1218 1   
1219 1   
1220 1   
1221 1   
1222 1   
1223 1   
1224 1   
1225 1   
1226 1   
1227 1   
1228 1   
1229 1   
1230 1   
1231 1   
1232 1   
1233 1   
1234 1   
1235 1   
1236 1   
1237 1   
1238 1   
1239 1   
1240 1   
1241 1   
1242 1   
1243 1   
1244 1   
1245 1   
1246 1   
1247 1   
1248 1   
1249 1   
1250 1   
1251 1   
1252 1   
1253 1   
1254 1   
1255 1   
1256 1   
1257 1   
1258 1   
1259 1   
1260 1   
1261 1   
1262 1   
1263 1   
1264 1   
1265 1   
1266 1   
1267 1   
1268 1   
1269 1   
1270 1   
1271 1   
1272 1   
1273 1   
1274 1   
1275 1   
1276 1   
1277 1   
1278 1   
1279 1   
1280 1   
1281 1   
1282 1   
1283 1   
1284 1   
1285 1   
1286 1   
1287 1   
1288 1   
1289 1   
1290 1   
1291 1   
1292 1   
1293 1   
1294 1   
1295 1   
1296 1   
1297 1   
1298 1   
1299 1   
1300 1   
1301 1   
1302 1   
1303 1   
1304 1   
1305 1   
1306 1   
1307 1   
1308 1   
1309 1   
1310 1   
1311 1   
1312 1   
1313 1   
1314 1   
1315 1   
1316 1   
1317 1   
1318 1   
1319 1   
1320 1   
1321 1   
1322 1   
1323 1   
1324 1   
1325 1   
1326 1   
1327 1   
1328 1   
1329 1   
1330 1   
1331 1   
1332 1   
1333 1   
1334 1   
1335 1   
1336 1   
1337 1   
1338 1   
1339 1   
1340 1   
1341 1   
1342 1   
1343 1   
1344 1   
1345 1   
1346 1   
1347 1   
1348 1   
1349 1   
1350 1   
1351 1   
1352 1   
1353 1   
1354 1   
1355 1   
1356 1   
1357 1   
1358 1   
1359 1   
1360 1   
1361 1   
1362 1   
1363 1   
1364 1   
1365 1   
1366 1   
1367 1   
1368 1   
1369 1   
1370 1   
1371 1   
1372 1   
1373 1   
1374 1   
1375 1   
1376 1   
1377 1   
1378 1   
1379 1   
1380 1   
1381 1   
1382 1   
1383 1   
1384 1   
1385 1   
1386 1   
1387 1   
1388 1   
1389 1   
1390 1   
1391 1   
1392 1   
1393 1   
1394 1   
1395 1   
1396 1   
1397 1   
1398 1   
1399 1   
1400 1   
1401 1   
1402 1   
1403 1   
1404 1   
1405 1   
1406 1   
1407 1   
1408 1   
1409 1   
1410 1   
1411 1   
1412 1   
1413 1   
1414 1   
1415 1   
1416 1   
1417 1   
1418 1   
1419 1   
1420 1   
1421 1   
1422 1   
1423 1   
1424 1   
1425 1   
1426 1   
1427 1   
1428 1   
1429 1   
1430 1   
1431 1   
1432 1   
1433 1   
1434 1   
1435 1   
1436 1   
1437 1   
1438 1   
1439 1   
1440 1   
1441 1   
1442 1   
1443 1   
1444 1   
1445 1   
1446 1   
1447 1   
1448 1   
1449 1   
1450 1   
1451 1   
1452 1   
1453 1   
1454 1   
1455 1   
1456 1   
1457 1   
1458 1   
1459 1   
1460 1   
1461 1   
1462 1   
1463 1   
1464 1   
1465 1   
1466 1   
1467 1   
1468 1   
1469 1   
1470 1   
1471 1   
1472 1   
1473 1   
1474 1   
1475 1   
1476 1   
1477 1   
1478 1   
1479 1   
1480 1   
1481 1   
1482 1   
1483 1   
1484 1   
1485 1   
1486 1   
1487 1   
1488 1   
1489 1   
1490 1   
1491 1   
1492 1   
1493 1   
1494 1   
1495 1   
1496 1   
1497 1   
1498 1   
1499 1   
1500 1   
1501 1   
1502 1   
1503 1   
1504 1   
1505 1   
1506 1   
1507 1   
1508 1   
1509 1   
1510 1   
1511 1   
1512 1   
1513 1   
1514 1   
1515 1   
1516 1   
1517 1   
1518 1   
1519 1   
1520 1   
1521 1   
1522 1   
1523 1   
1524 1   
1525 1   
1526 1   
1527 1   
1528 1   
1529 1   
1530 1   
1531 1   
1532 1   
1533 1   
1534 1   
1535 1   
1536 1   
1537 1   
1538 1   
1539 1   
1540 1   
1541 1   
1542 1   
1543 1   
1544 1   
1545 1   
1546 1   
1547 1   
1548 1   
1549 1   
1550 1   
1551 1   
1552 1   
1553 1   
1554 1   
1555 1   
1556 1   
1557 1   
1558 1   
1559 1   
1560 1   
1561 1   
DEPOT_SECTION
1
-1
EOF
